c n orig vars 54
p cnf 56 94
1 2 -55 0
3 4 -55 0
5 6 -55 0
7 8 -55 0
9 10 -55 0
11 12 -55 0
13 14 -55 0
15 16 -55 0
17 18 -55 0
19 20 -55 0
21 22 -55 0
23 24 -55 0
25 31 37 43 49 -56 0
26 32 38 44 50 -56 0
27 33 39 45 51 -56 0
28 34 40 46 52 -56 0
29 35 41 47 53 -56 0
30 36 42 48 54 -56 0
-25 -26 -56 0
-25 -27 -56 0
-25 -28 -56 0
-25 -29 -56 0
-25 -30 -56 0
-26 -27 -56 0
-26 -28 -56 0
-26 -29 -56 0
-26 -30 -56 0
-27 -28 -56 0
-27 -29 -56 0
-27 -30 -56 0
-28 -29 -56 0
-28 -30 -56 0
-29 -30 -56 0
-31 -32 -56 0
-31 -33 -56 0
-31 -34 -56 0
-31 -35 -56 0
-31 -36 -56 0
-32 -33 -56 0
-32 -34 -56 0
-32 -35 -56 0
-32 -36 -56 0
-33 -34 -56 0
-33 -35 -56 0
-33 -36 -56 0
-34 -35 -56 0
-34 -36 -56 0
-35 -36 -56 0
-37 -38 -56 0
-37 -39 -56 0
-37 -40 -56 0
-37 -41 -56 0
-37 -42 -56 0
-38 -39 -56 0
-38 -40 -56 0
-38 -41 -56 0
-38 -42 -56 0
-39 -40 -56 0
-39 -41 -56 0
-39 -42 -56 0
-40 -41 -56 0
-40 -42 -56 0
-41 -42 -56 0
-43 -44 -56 0
-43 -45 -56 0
-43 -46 -56 0
-43 -47 -56 0
-43 -48 -56 0
-44 -45 -56 0
-44 -46 -56 0
-44 -47 -56 0
-44 -48 -56 0
-45 -46 -56 0
-45 -47 -56 0
-45 -48 -56 0
-46 -47 -56 0
-46 -48 -56 0
-47 -48 -56 0
-49 -50 -56 0
-49 -51 -56 0
-49 -52 -56 0
-49 -53 -56 0
-49 -54 -56 0
-50 -51 -56 0
-50 -52 -56 0
-50 -53 -56 0
-50 -54 -56 0
-51 -52 -56 0
-51 -53 -56 0
-51 -54 -56 0
-52 -53 -56 0
-52 -54 -56 0
-53 -54 -56 0
55 56 0
